instances/knapsack/discrete/knapsack_130_16.lp
\ Model knapsack_130_16
\ LP format - for model browsing. Use MPS format to capture full model detail.
\ Signature: 0x8c644a484ac146d4
Minimize
  - 81 x[0] - 98 x[1] - 31 x[2] - 35 x[3] - 33 x[4] - 60 x[5] - 73 x[6]
   - 19 x[7] - 46 x[8] - 18 x[9] - 94 x[10] - 54 x[11] - 38 x[12]
   - 45 x[13] - 14 x[14] - 75 x[15] - 29 x[16] - 29 x[17] - 2 x[18]
   - 69 x[19] - 77 x[20] - 38 x[21] - 51 x[22] - 43 x[23] - 4 x[24]
   - 26 x[25] - 71 x[26] - 87 x[27] - 25 x[28] - 36 x[29] - 36 x[30]
   - 7 x[31] - 83 x[32] - 54 x[33] - 43 x[34] - 56 x[35] - 36 x[36]
   - 70 x[37] - 86 x[38] - 39 x[39] - 63 x[40] - 97 x[41] - 77 x[42]
   - 82 x[43] - 86 x[44] - 46 x[45] - 88 x[46] - 16 x[47] - 48 x[48]
   - 29 x[49] - 70 x[50] - 18 x[51] - 2 x[52] - 64 x[53] - 43 x[54]
   - 93 x[55] - 74 x[56] - 39 x[57] - 63 x[58] - 62 x[59] - 3 x[60]
   - 65 x[61] - 73 x[62] - 25 x[63] - 90 x[64] - 92 x[65] - 20 x[66]
   - 61 x[67] - 48 x[68] - 41 x[69] - 36 x[70] - 46 x[71] - 32 x[72]
   - 49 x[73] - 66 x[74] - 65 x[75] - 69 x[76] - 72 x[77] - 63 x[78]
   - 75 x[79] - 90 x[80] - 29 x[81] - 25 x[82] - 57 x[83] - 100 x[84]
   - 8 x[85] - 97 x[86] - 62 x[87] - 67 x[88] - 10 x[89] - 57 x[90]
   - 9 x[91] - 49 x[92] - 88 x[93] - 19 x[94] - 10 x[95] - 24 x[96]
   - 19 x[97] - 88 x[98] - 36 x[99] - 24 x[100] - 61 x[101] - 50 x[102]
   - 93 x[103] - 98 x[104] - 66 x[105] - 65 x[106] - 72 x[107] - 85 x[108]
   - 76 x[109] - 45 x[110] - 77 x[111] - 73 x[112] - 99 x[113] - 17 x[114]
   - 52 x[115] - 50 x[116] - 76 x[117] - 89 x[118] - 98 x[119] - 69 x[120]
   - 94 x[121] - 13 x[122] - 38 x[123] - 23 x[124] - 100 x[125] - 16 x[126]
   - 25 x[127] - 43 x[128] - 48 x[129]
Subject To
 primal_upper: 51 x[0] + 11 x[1] + 5 x[2] + 26 x[3] + 3 x[4] + x[5]
   + 32 x[6] + 15 x[7] + 48 x[8] + 49 x[9] + 23 x[10] + 62 x[11] + 75 x[12]
   + 43 x[13] + 56 x[14] + 80 x[15] + 84 x[16] + 59 x[17] + 52 x[18]
   + 17 x[19] + 100 x[20] + 91 x[21] + 67 x[22] + 86 x[23] + 48 x[24]
   + 11 x[25] + 21 x[26] + 87 x[27] + 5 x[28] + 78 x[29] + 81 x[30]
   + 51 x[31] + 31 x[32] + 28 x[33] + 39 x[34] + 36 x[35] + 67 x[36]
   + 80 x[37] + 83 x[38] + 6 x[39] + 74 x[40] + 69 x[41] + 85 x[42]
   + 45 x[43] + 74 x[44] + 86 x[45] + 89 x[46] + 85 x[47] + 62 x[48]
   + 63 x[49] + 18 x[50] + 7 x[51] + 100 x[52] + 27 x[53] + 68 x[54]
   + 3 x[55] + 48 x[56] + 2 x[57] + 19 x[58] + 69 x[59] + 4 x[60]
   + 46 x[61] + 71 x[62] + 70 x[63] + 27 x[64] + 11 x[65] + 20 x[66]
   + 54 x[67] + 35 x[68] + x[69] + 93 x[70] + 73 x[71] + 93 x[72] + 6 x[73]
   + 11 x[74] + 52 x[75] + 14 x[76] + 98 x[77] + 88 x[78] + 6 x[79]
   + 93 x[80] + 21 x[81] + 98 x[82] + 93 x[83] + 17 x[84] + 81 x[85]
   + 11 x[86] + 99 x[87] + 93 x[88] + 74 x[89] + 84 x[90] + 32 x[91]
   + 68 x[92] + 67 x[93] + 95 x[94] + 20 x[95] + 36 x[96] + 56 x[97]
   + 87 x[98] + 19 x[99] + 64 x[100] + 51 x[101] + 49 x[102] + 75 x[103]
   + 84 x[104] + 17 x[105] + 46 x[106] + 50 x[107] + 98 x[108] + 100 x[109]
   + 78 x[110] + 54 x[111] + 92 x[112] + 84 x[113] + 12 x[114] + 94 x[115]
   + 82 x[116] + 40 x[117] + 68 x[118] + 64 x[119] + 7 x[120] + 20 x[121]
   + 83 x[122] + 18 x[123] + 44 x[124] + 58 x[125] + 75 x[126] + 55 x[127]
   + 86 x[128] + 34 x[129] + 5.1 r[0] + 1.1 r[1] + 0.5 r[2] + 2.6 r[3]
   + 0.3 r[4] + 0.1 r[5] + 3.2 r[6] + 1.5 r[7] + 4.8 r[8] + 4.9 r[9]
   + 2.3 r[10] + 6.2 r[11] + 7.5 r[12] + 4.3 r[13] + 5.6 r[14] + 8 r[15]
   + 8.4 r[16] + 5.9 r[17] + 5.2 r[18] + 1.7 r[19] + 10 r[20] + 9.1 r[21]
   + 6.7 r[22] + 8.6 r[23] + 4.8 r[24] + 1.1 r[25] + 2.1 r[26] + 8.7 r[27]
   + 0.5 r[28] + 7.8 r[29] + 8.1 r[30] + 5.1 r[31] + 3.1 r[32] + 2.8 r[33]
   + 3.9 r[34] + 3.6 r[35] + 6.7 r[36] + 8 r[37] + 8.3 r[38] + 0.6 r[39]
   + 7.4 r[40] + 6.9 r[41] + 8.5 r[42] + 4.5 r[43] + 7.4 r[44] + 8.6 r[45]
   + 8.9 r[46] + 8.5 r[47] + 6.2 r[48] + 6.3 r[49] + 1.8 r[50] + 0.7 r[51]
   + 10 r[52] + 2.7 r[53] + 6.8 r[54] + 0.3 r[55] + 4.8 r[56] + 0.2 r[57]
   + 1.9 r[58] + 6.9 r[59] + 0.4 r[60] + 4.6 r[61] + 7.1 r[62] + 7 r[63]
   + 2.7 r[64] + 1.1 r[65] + 2 r[66] + 5.4 r[67] + 3.5 r[68] + 0.1 r[69]
   + 9.3 r[70] + 7.3 r[71] + 9.3 r[72] + 0.6 r[73] + 1.1 r[74] + 5.2 r[75]
   + 1.4 r[76] + 9.8 r[77] + 8.8 r[78] + 0.6 r[79] + 9.3 r[80] + 2.1 r[81]
   + 9.8 r[82] + 9.3 r[83] + 1.7 r[84] + 8.1 r[85] + 1.1 r[86] + 9.9 r[87]
   + 9.3 r[88] + 7.4 r[89] + 8.4 r[90] + 3.2 r[91] + 6.8 r[92] + 6.7 r[93]
   + 9.5 r[94] + 2 r[95] + 3.6 r[96] + 5.6 r[97] + 8.7 r[98] + 1.9 r[99]
   + 6.4 r[100] + 5.1 r[101] + 4.9 r[102] + 7.5 r[103] + 8.4 r[104]
   + 1.7 r[105] + 4.6 r[106] + 5 r[107] + 9.8 r[108] + 10 r[109]
   + 7.8 r[110] + 5.4 r[111] + 9.2 r[112] + 8.4 r[113] + 1.2 r[114]
   + 9.4 r[115] + 8.2 r[116] + 4 r[117] + 6.8 r[118] + 6.4 r[119]
   + 0.7 r[120] + 2 r[121] + 8.3 r[122] + 1.8 r[123] + 4.4 r[124]
   + 5.8 r[125] + 7.5 r[126] + 5.5 r[127] + 8.6 r[128] + 3.4 r[129] <= 655
 primal_lower: 1.904424289022398 x[0] + 3.425463204429596 x[1]
   + 3.95166532849917 x[2] + 3.479411559478793 x[3] + 5.20951987057103 x[4]
   + 1.414130076416979 x[5] + 3.390875690153175 x[6]
   + 3.269778824780087 x[7] + 4.957037275819961 x[8]
   + 0.9556995553133745 x[9] + 1.754032349314798 x[10]
   + 2.862649155045029 x[11] + 1.695682944245465 x[12]
   + 3.990597467204948 x[13] + 4.579857363654097 x[14]
   + 3.501613474016053 x[15] + 2.09017458762177 x[16]
   + 0.3840526876899136 x[17] + 3.849632804745038 x[18]
   + 3.107997842146517 x[19] + 4.975451741585233 x[20]
   + 0.4019511905036996 x[21] + 1.167554729722346 x[22]
   + 4.441035643676678 x[23] + 4.958674428019151 x[24]
   + 0.9811543458079207 x[25] + 2.34679391967467 x[26]
   + 1.189499800446444 x[27] + 5.080930251594941 x[28]
   + 1.303574145531078 x[29] + 4.962258049831132 x[30]
   + 0.4596068290561353 x[31] + 0.8418983186878155 x[32]
   + 2.145872870185888 x[33] + 2.351223808656297 x[34]
   + 3.509820982078601 x[35] + 0.5801871281087949 x[36]
   + 2.525542830447935 x[37] + 0.9120816657477028 x[38]
   + 3.542714490163831 x[39] + 0.038014892850427 x[40]
   + 3.481829076873082 x[41] + 4.307991407859516 x[42]
   + 2.832196963239455 x[43] + 5.269161634808355 x[44]
   + 1.47636492090224 x[45] + 2.346930137973485 x[46]
   + 4.34819089769501 x[47] + 1.417721506546697 x[48]
   + 2.799445445851262 x[49] + 2.158742265479761 x[50]
   + 5.338042149639385 x[51] + 5.188665886968729 x[52]
   + 4.112782597927517 x[53] + 2.402487453061941 x[54]
   + 0.2509127944736428 x[55] + 2.705576957890639 x[56]
   + 0.8795187743102323 x[57] + 3.617042756356888 x[58]
   + 3.335743855770284 x[59] + 1.370531124827226 x[60]
   + 4.232475839705806 x[61] + 5.321444388337627 x[62]
   + 4.679471887453194 x[63] + 3.662318438828718 x[64]
   + 2.144234871920163 x[65] + 2.518904809966087 x[66]
   + 3.139245691219966 x[67] + 2.318135280856935 x[68]
   + 3.663703494030991 x[69] + 4.306544719745606 x[70]
   + 4.364865550815974 x[71] + 3.968751907333769 x[72]
   + 0.9905566278811671 x[73] + 3.945151684181307 x[74]
   + 2.836232545287313 x[75] + 0.9720940447118712 x[76]
   + 4.903184109119208 x[77] + 3.267605743555916 x[78]
   + 2.911364663238171 x[79] + 2.630578980678388 x[80]
   + 2.204338326126202 x[81] + 0.7482970575488799 x[82]
   + 0.4096041434477118 x[83] + 1.745911348189172 x[84]
   + 0.8514082619429223 x[85] + 2.467850023618798 x[86]
   + 4.462741341575426 x[87] + 2.760924241316605 x[88]
   + 4.069838034354265 x[89] + 4.759420259464685 x[90]
   + 2.482756264415859 x[91] + 1.049454070797652 x[92]
   + 2.107946764355539 x[93] + 0.2009072922399374 x[94]
   + 2.526996509719373 x[95] + 1.030466409911081 x[96]
   + 1.470426670823652 x[97] + 4.474127618630829 x[98]
   + 0.1515139167435531 x[99] + 3.170505271240446 x[100]
   + 3.385420466022662 x[101] + 0.1658762085360067 x[102]
   + 3.039280897925853 x[103] + 4.488124621485031 x[104]
   + 2.447818337735345 x[105] + 4.874297722572178 x[106]
   + 2.58056852242865 x[107] + 1.602922929131064 x[108]
   + 5.394021466551937 x[109] + 0.4500104612301265 x[110]
   + 2.956521980918703 x[111] + 3.683257195830921 x[112]
   + 1.709594562176161 x[113] + 0.8474555970729918 x[114]
   + 2.891013712612803 x[115] + 0.9306947480552243 x[116]
   + 1.22445748436083 x[117] + 0.0405165546233314 x[118]
   + 1.271372882377845 x[119] + 0.1354621776108279 x[120]
   + 4.196814991356749 x[121] + 1.610771058013694 x[122]
   + 5.1436196360432 x[123] + 4.975790930726963 x[124]
   + 2.840781751696846 x[125] + 1.191056277209291 x[126]
   + 4.456041161209821 x[127] + 2.508208246143115 x[128]
   + 0.8249840666605347 x[129] + 4 u[0] + 4 u[1] + 14 u[2] + 99 u[3]
   + 88 u[4] + 82 u[5] + 5 u[6] + 64 u[7] + 49 u[8] + 74 u[9] + 32 u[10]
   + 79 u[11] + 68 u[12] + 96 u[13] + 49 u[14] + 33 u[15] + 57 u[16]
   + 100 u[17] + 61 u[18] + 38 u[19] + 81 u[20] + 92 u[21] + 96 u[22]
   + 23 u[23] + u[24] + 92 u[25] + 2 u[26] + 48 u[27] + 70 u[28] + 51 u[29]
   + 14 u[30] + 28 u[31] + 80 u[32] + 69 u[33] + 16 u[34] + 45 u[35]
   + 68 u[36] + 41 u[37] + 24 u[38] + 79 u[39] + 71 u[40] + 86 u[41]
   + 70 u[42] + 66 u[43] + 95 u[44] + 59 u[45] + 54 u[46] + 18 u[47]
   + 87 u[48] + 72 u[49] + 3 u[50] + 52 u[51] + 93 u[52] + 64 u[53]
   + 69 u[54] + 100 u[55] + 45 u[56] + 75 u[57] + 52 u[58] + 38 u[59]
   + 29 u[60] + 39 u[61] + 92 u[62] + 95 u[63] + 44 u[64] + 80 u[65]
   + 65 u[66] + 67 u[67] + 76 u[68] + 34 u[69] + 58 u[70] + 62 u[71]
   + 82 u[72] + 11 u[73] + 60 u[74] + 49 u[75] + 79 u[76] + 11 u[77]
   + 13 u[78] + 55 u[79] + 90 u[80] + 74 u[81] + 59 u[82] + 50 u[83]
   + 30 u[84] + 70 u[85] + 84 u[86] + 72 u[87] + 30 u[88] + 83 u[89]
   + 61 u[90] + 53 u[91] + 29 u[92] + 92 u[93] + 88 u[94] + 29 u[95]
   + 73 u[96] + 45 u[97] + 28 u[98] + 16 u[99] + 81 u[100] + 88 u[101]
   + 50 u[102] + 88 u[103] + 69 u[104] + 82 u[105] + 27 u[106] + 79 u[107]
   + 87 u[108] + u[109] + 71 u[110] + 39 u[111] + 5 u[112] + 49 u[113]
   + 73 u[114] + 83 u[115] + 63 u[116] + 85 u[117] + 21 u[118] + 53 u[119]
   + 92 u[120] + u[121] + 36 u[122] + 43 u[123] + 49 u[124] + 67 u[125]
   + 88 u[126] + 84 u[127] + 95 u[128] + 35 u[129] <= 59786
 mccormick1[0]: - u[0] + r[0] <= 0
 mccormick1[1]: - u[1] + r[1] <= 0
 mccormick1[2]: - u[2] + r[2] <= 0
 mccormick1[3]: - u[3] + r[3] <= 0
 mccormick1[4]: - u[4] + r[4] <= 0
 mccormick1[5]: - u[5] + r[5] <= 0
 mccormick1[6]: - u[6] + r[6] <= 0
 mccormick1[7]: - u[7] + r[7] <= 0
 mccormick1[8]: - u[8] + r[8] <= 0
 mccormick1[9]: - u[9] + r[9] <= 0
 mccormick1[10]: - u[10] + r[10] <= 0
 mccormick1[11]: - u[11] + r[11] <= 0
 mccormick1[12]: - u[12] + r[12] <= 0
 mccormick1[13]: - u[13] + r[13] <= 0
 mccormick1[14]: - u[14] + r[14] <= 0
 mccormick1[15]: - u[15] + r[15] <= 0
 mccormick1[16]: - u[16] + r[16] <= 0
 mccormick1[17]: - u[17] + r[17] <= 0
 mccormick1[18]: - u[18] + r[18] <= 0
 mccormick1[19]: - u[19] + r[19] <= 0
 mccormick1[20]: - u[20] + r[20] <= 0
 mccormick1[21]: - u[21] + r[21] <= 0
 mccormick1[22]: - u[22] + r[22] <= 0
 mccormick1[23]: - u[23] + r[23] <= 0
 mccormick1[24]: - u[24] + r[24] <= 0
 mccormick1[25]: - u[25] + r[25] <= 0
 mccormick1[26]: - u[26] + r[26] <= 0
 mccormick1[27]: - u[27] + r[27] <= 0
 mccormick1[28]: - u[28] + r[28] <= 0
 mccormick1[29]: - u[29] + r[29] <= 0
 mccormick1[30]: - u[30] + r[30] <= 0
 mccormick1[31]: - u[31] + r[31] <= 0
 mccormick1[32]: - u[32] + r[32] <= 0
 mccormick1[33]: - u[33] + r[33] <= 0
 mccormick1[34]: - u[34] + r[34] <= 0
 mccormick1[35]: - u[35] + r[35] <= 0
 mccormick1[36]: - u[36] + r[36] <= 0
 mccormick1[37]: - u[37] + r[37] <= 0
 mccormick1[38]: - u[38] + r[38] <= 0
 mccormick1[39]: - u[39] + r[39] <= 0
 mccormick1[40]: - u[40] + r[40] <= 0
 mccormick1[41]: - u[41] + r[41] <= 0
 mccormick1[42]: - u[42] + r[42] <= 0
 mccormick1[43]: - u[43] + r[43] <= 0
 mccormick1[44]: - u[44] + r[44] <= 0
 mccormick1[45]: - u[45] + r[45] <= 0
 mccormick1[46]: - u[46] + r[46] <= 0
 mccormick1[47]: - u[47] + r[47] <= 0
 mccormick1[48]: - u[48] + r[48] <= 0
 mccormick1[49]: - u[49] + r[49] <= 0
 mccormick1[50]: - u[50] + r[50] <= 0
 mccormick1[51]: - u[51] + r[51] <= 0
 mccormick1[52]: - u[52] + r[52] <= 0
 mccormick1[53]: - u[53] + r[53] <= 0
 mccormick1[54]: - u[54] + r[54] <= 0
 mccormick1[55]: - u[55] + r[55] <= 0
 mccormick1[56]: - u[56] + r[56] <= 0
 mccormick1[57]: - u[57] + r[57] <= 0
 mccormick1[58]: - u[58] + r[58] <= 0
 mccormick1[59]: - u[59] + r[59] <= 0
 mccormick1[60]: - u[60] + r[60] <= 0
 mccormick1[61]: - u[61] + r[61] <= 0
 mccormick1[62]: - u[62] + r[62] <= 0
 mccormick1[63]: - u[63] + r[63] <= 0
 mccormick1[64]: - u[64] + r[64] <= 0
 mccormick1[65]: - u[65] + r[65] <= 0
 mccormick1[66]: - u[66] + r[66] <= 0
 mccormick1[67]: - u[67] + r[67] <= 0
 mccormick1[68]: - u[68] + r[68] <= 0
 mccormick1[69]: - u[69] + r[69] <= 0
 mccormick1[70]: - u[70] + r[70] <= 0
 mccormick1[71]: - u[71] + r[71] <= 0
 mccormick1[72]: - u[72] + r[72] <= 0
 mccormick1[73]: - u[73] + r[73] <= 0
 mccormick1[74]: - u[74] + r[74] <= 0
 mccormick1[75]: - u[75] + r[75] <= 0
 mccormick1[76]: - u[76] + r[76] <= 0
 mccormick1[77]: - u[77] + r[77] <= 0
 mccormick1[78]: - u[78] + r[78] <= 0
 mccormick1[79]: - u[79] + r[79] <= 0
 mccormick1[80]: - u[80] + r[80] <= 0
 mccormick1[81]: - u[81] + r[81] <= 0
 mccormick1[82]: - u[82] + r[82] <= 0
 mccormick1[83]: - u[83] + r[83] <= 0
 mccormick1[84]: - u[84] + r[84] <= 0
 mccormick1[85]: - u[85] + r[85] <= 0
 mccormick1[86]: - u[86] + r[86] <= 0
 mccormick1[87]: - u[87] + r[87] <= 0
 mccormick1[88]: - u[88] + r[88] <= 0
 mccormick1[89]: - u[89] + r[89] <= 0
 mccormick1[90]: - u[90] + r[90] <= 0
 mccormick1[91]: - u[91] + r[91] <= 0
 mccormick1[92]: - u[92] + r[92] <= 0
 mccormick1[93]: - u[93] + r[93] <= 0
 mccormick1[94]: - u[94] + r[94] <= 0
 mccormick1[95]: - u[95] + r[95] <= 0
 mccormick1[96]: - u[96] + r[96] <= 0
 mccormick1[97]: - u[97] + r[97] <= 0
 mccormick1[98]: - u[98] + r[98] <= 0
 mccormick1[99]: - u[99] + r[99] <= 0
 mccormick1[100]: - u[100] + r[100] <= 0
 mccormick1[101]: - u[101] + r[101] <= 0
 mccormick1[102]: - u[102] + r[102] <= 0
 mccormick1[103]: - u[103] + r[103] <= 0
 mccormick1[104]: - u[104] + r[104] <= 0
 mccormick1[105]: - u[105] + r[105] <= 0
 mccormick1[106]: - u[106] + r[106] <= 0
 mccormick1[107]: - u[107] + r[107] <= 0
 mccormick1[108]: - u[108] + r[108] <= 0
 mccormick1[109]: - u[109] + r[109] <= 0
 mccormick1[110]: - u[110] + r[110] <= 0
 mccormick1[111]: - u[111] + r[111] <= 0
 mccormick1[112]: - u[112] + r[112] <= 0
 mccormick1[113]: - u[113] + r[113] <= 0
 mccormick1[114]: - u[114] + r[114] <= 0
 mccormick1[115]: - u[115] + r[115] <= 0
 mccormick1[116]: - u[116] + r[116] <= 0
 mccormick1[117]: - u[117] + r[117] <= 0
 mccormick1[118]: - u[118] + r[118] <= 0
 mccormick1[119]: - u[119] + r[119] <= 0
 mccormick1[120]: - u[120] + r[120] <= 0
 mccormick1[121]: - u[121] + r[121] <= 0
 mccormick1[122]: - u[122] + r[122] <= 0
 mccormick1[123]: - u[123] + r[123] <= 0
 mccormick1[124]: - u[124] + r[124] <= 0
 mccormick1[125]: - u[125] + r[125] <= 0
 mccormick1[126]: - u[126] + r[126] <= 0
 mccormick1[127]: - u[127] + r[127] <= 0
 mccormick1[128]: - u[128] + r[128] <= 0
 mccormick1[129]: - u[129] + r[129] <= 0
 mccormick2[0]: - x[0] + r[0] <= 0
 mccormick2[1]: - x[1] + r[1] <= 0
 mccormick2[2]: - x[2] + r[2] <= 0
 mccormick2[3]: - x[3] + r[3] <= 0
 mccormick2[4]: - x[4] + r[4] <= 0
 mccormick2[5]: - x[5] + r[5] <= 0
 mccormick2[6]: - x[6] + r[6] <= 0
 mccormick2[7]: - x[7] + r[7] <= 0
 mccormick2[8]: - x[8] + r[8] <= 0
 mccormick2[9]: - x[9] + r[9] <= 0
 mccormick2[10]: - x[10] + r[10] <= 0
 mccormick2[11]: - x[11] + r[11] <= 0
 mccormick2[12]: - x[12] + r[12] <= 0
 mccormick2[13]: - x[13] + r[13] <= 0
 mccormick2[14]: - x[14] + r[14] <= 0
 mccormick2[15]: - x[15] + r[15] <= 0
 mccormick2[16]: - x[16] + r[16] <= 0
 mccormick2[17]: - x[17] + r[17] <= 0
 mccormick2[18]: - x[18] + r[18] <= 0
 mccormick2[19]: - x[19] + r[19] <= 0
 mccormick2[20]: - x[20] + r[20] <= 0
 mccormick2[21]: - x[21] + r[21] <= 0
 mccormick2[22]: - x[22] + r[22] <= 0
 mccormick2[23]: - x[23] + r[23] <= 0
 mccormick2[24]: - x[24] + r[24] <= 0
 mccormick2[25]: - x[25] + r[25] <= 0
 mccormick2[26]: - x[26] + r[26] <= 0
 mccormick2[27]: - x[27] + r[27] <= 0
 mccormick2[28]: - x[28] + r[28] <= 0
 mccormick2[29]: - x[29] + r[29] <= 0
 mccormick2[30]: - x[30] + r[30] <= 0
 mccormick2[31]: - x[31] + r[31] <= 0
 mccormick2[32]: - x[32] + r[32] <= 0
 mccormick2[33]: - x[33] + r[33] <= 0
 mccormick2[34]: - x[34] + r[34] <= 0
 mccormick2[35]: - x[35] + r[35] <= 0
 mccormick2[36]: - x[36] + r[36] <= 0
 mccormick2[37]: - x[37] + r[37] <= 0
 mccormick2[38]: - x[38] + r[38] <= 0
 mccormick2[39]: - x[39] + r[39] <= 0
 mccormick2[40]: - x[40] + r[40] <= 0
 mccormick2[41]: - x[41] + r[41] <= 0
 mccormick2[42]: - x[42] + r[42] <= 0
 mccormick2[43]: - x[43] + r[43] <= 0
 mccormick2[44]: - x[44] + r[44] <= 0
 mccormick2[45]: - x[45] + r[45] <= 0
 mccormick2[46]: - x[46] + r[46] <= 0
 mccormick2[47]: - x[47] + r[47] <= 0
 mccormick2[48]: - x[48] + r[48] <= 0
 mccormick2[49]: - x[49] + r[49] <= 0
 mccormick2[50]: - x[50] + r[50] <= 0
 mccormick2[51]: - x[51] + r[51] <= 0
 mccormick2[52]: - x[52] + r[52] <= 0
 mccormick2[53]: - x[53] + r[53] <= 0
 mccormick2[54]: - x[54] + r[54] <= 0
 mccormick2[55]: - x[55] + r[55] <= 0
 mccormick2[56]: - x[56] + r[56] <= 0
 mccormick2[57]: - x[57] + r[57] <= 0
 mccormick2[58]: - x[58] + r[58] <= 0
 mccormick2[59]: - x[59] + r[59] <= 0
 mccormick2[60]: - x[60] + r[60] <= 0
 mccormick2[61]: - x[61] + r[61] <= 0
 mccormick2[62]: - x[62] + r[62] <= 0
 mccormick2[63]: - x[63] + r[63] <= 0
 mccormick2[64]: - x[64] + r[64] <= 0
 mccormick2[65]: - x[65] + r[65] <= 0
 mccormick2[66]: - x[66] + r[66] <= 0
 mccormick2[67]: - x[67] + r[67] <= 0
 mccormick2[68]: - x[68] + r[68] <= 0
 mccormick2[69]: - x[69] + r[69] <= 0
 mccormick2[70]: - x[70] + r[70] <= 0
 mccormick2[71]: - x[71] + r[71] <= 0
 mccormick2[72]: - x[72] + r[72] <= 0
 mccormick2[73]: - x[73] + r[73] <= 0
 mccormick2[74]: - x[74] + r[74] <= 0
 mccormick2[75]: - x[75] + r[75] <= 0
 mccormick2[76]: - x[76] + r[76] <= 0
 mccormick2[77]: - x[77] + r[77] <= 0
 mccormick2[78]: - x[78] + r[78] <= 0
 mccormick2[79]: - x[79] + r[79] <= 0
 mccormick2[80]: - x[80] + r[80] <= 0
 mccormick2[81]: - x[81] + r[81] <= 0
 mccormick2[82]: - x[82] + r[82] <= 0
 mccormick2[83]: - x[83] + r[83] <= 0
 mccormick2[84]: - x[84] + r[84] <= 0
 mccormick2[85]: - x[85] + r[85] <= 0
 mccormick2[86]: - x[86] + r[86] <= 0
 mccormick2[87]: - x[87] + r[87] <= 0
 mccormick2[88]: - x[88] + r[88] <= 0
 mccormick2[89]: - x[89] + r[89] <= 0
 mccormick2[90]: - x[90] + r[90] <= 0
 mccormick2[91]: - x[91] + r[91] <= 0
 mccormick2[92]: - x[92] + r[92] <= 0
 mccormick2[93]: - x[93] + r[93] <= 0
 mccormick2[94]: - x[94] + r[94] <= 0
 mccormick2[95]: - x[95] + r[95] <= 0
 mccormick2[96]: - x[96] + r[96] <= 0
 mccormick2[97]: - x[97] + r[97] <= 0
 mccormick2[98]: - x[98] + r[98] <= 0
 mccormick2[99]: - x[99] + r[99] <= 0
 mccormick2[100]: - x[100] + r[100] <= 0
 mccormick2[101]: - x[101] + r[101] <= 0
 mccormick2[102]: - x[102] + r[102] <= 0
 mccormick2[103]: - x[103] + r[103] <= 0
 mccormick2[104]: - x[104] + r[104] <= 0
 mccormick2[105]: - x[105] + r[105] <= 0
 mccormick2[106]: - x[106] + r[106] <= 0
 mccormick2[107]: - x[107] + r[107] <= 0
 mccormick2[108]: - x[108] + r[108] <= 0
 mccormick2[109]: - x[109] + r[109] <= 0
 mccormick2[110]: - x[110] + r[110] <= 0
 mccormick2[111]: - x[111] + r[111] <= 0
 mccormick2[112]: - x[112] + r[112] <= 0
 mccormick2[113]: - x[113] + r[113] <= 0
 mccormick2[114]: - x[114] + r[114] <= 0
 mccormick2[115]: - x[115] + r[115] <= 0
 mccormick2[116]: - x[116] + r[116] <= 0
 mccormick2[117]: - x[117] + r[117] <= 0
 mccormick2[118]: - x[118] + r[118] <= 0
 mccormick2[119]: - x[119] + r[119] <= 0
 mccormick2[120]: - x[120] + r[120] <= 0
 mccormick2[121]: - x[121] + r[121] <= 0
 mccormick2[122]: - x[122] + r[122] <= 0
 mccormick2[123]: - x[123] + r[123] <= 0
 mccormick2[124]: - x[124] + r[124] <= 0
 mccormick2[125]: - x[125] + r[125] <= 0
 mccormick2[126]: - x[126] + r[126] <= 0
 mccormick2[127]: - x[127] + r[127] <= 0
 mccormick2[128]: - x[128] + r[128] <= 0
 mccormick2[129]: - x[129] + r[129] <= 0
 mccormick3[0]: x[0] + u[0] - r[0] <= 1
 mccormick3[1]: x[1] + u[1] - r[1] <= 1
 mccormick3[2]: x[2] + u[2] - r[2] <= 1
 mccormick3[3]: x[3] + u[3] - r[3] <= 1
 mccormick3[4]: x[4] + u[4] - r[4] <= 1
 mccormick3[5]: x[5] + u[5] - r[5] <= 1
 mccormick3[6]: x[6] + u[6] - r[6] <= 1
 mccormick3[7]: x[7] + u[7] - r[7] <= 1
 mccormick3[8]: x[8] + u[8] - r[8] <= 1
 mccormick3[9]: x[9] + u[9] - r[9] <= 1
 mccormick3[10]: x[10] + u[10] - r[10] <= 1
 mccormick3[11]: x[11] + u[11] - r[11] <= 1
 mccormick3[12]: x[12] + u[12] - r[12] <= 1
 mccormick3[13]: x[13] + u[13] - r[13] <= 1
 mccormick3[14]: x[14] + u[14] - r[14] <= 1
 mccormick3[15]: x[15] + u[15] - r[15] <= 1
 mccormick3[16]: x[16] + u[16] - r[16] <= 1
 mccormick3[17]: x[17] + u[17] - r[17] <= 1
 mccormick3[18]: x[18] + u[18] - r[18] <= 1
 mccormick3[19]: x[19] + u[19] - r[19] <= 1
 mccormick3[20]: x[20] + u[20] - r[20] <= 1
 mccormick3[21]: x[21] + u[21] - r[21] <= 1
 mccormick3[22]: x[22] + u[22] - r[22] <= 1
 mccormick3[23]: x[23] + u[23] - r[23] <= 1
 mccormick3[24]: x[24] + u[24] - r[24] <= 1
 mccormick3[25]: x[25] + u[25] - r[25] <= 1
 mccormick3[26]: x[26] + u[26] - r[26] <= 1
 mccormick3[27]: x[27] + u[27] - r[27] <= 1
 mccormick3[28]: x[28] + u[28] - r[28] <= 1
 mccormick3[29]: x[29] + u[29] - r[29] <= 1
 mccormick3[30]: x[30] + u[30] - r[30] <= 1
 mccormick3[31]: x[31] + u[31] - r[31] <= 1
 mccormick3[32]: x[32] + u[32] - r[32] <= 1
 mccormick3[33]: x[33] + u[33] - r[33] <= 1
 mccormick3[34]: x[34] + u[34] - r[34] <= 1
 mccormick3[35]: x[35] + u[35] - r[35] <= 1
 mccormick3[36]: x[36] + u[36] - r[36] <= 1
 mccormick3[37]: x[37] + u[37] - r[37] <= 1
 mccormick3[38]: x[38] + u[38] - r[38] <= 1
 mccormick3[39]: x[39] + u[39] - r[39] <= 1
 mccormick3[40]: x[40] + u[40] - r[40] <= 1
 mccormick3[41]: x[41] + u[41] - r[41] <= 1
 mccormick3[42]: x[42] + u[42] - r[42] <= 1
 mccormick3[43]: x[43] + u[43] - r[43] <= 1
 mccormick3[44]: x[44] + u[44] - r[44] <= 1
 mccormick3[45]: x[45] + u[45] - r[45] <= 1
 mccormick3[46]: x[46] + u[46] - r[46] <= 1
 mccormick3[47]: x[47] + u[47] - r[47] <= 1
 mccormick3[48]: x[48] + u[48] - r[48] <= 1
 mccormick3[49]: x[49] + u[49] - r[49] <= 1
 mccormick3[50]: x[50] + u[50] - r[50] <= 1
 mccormick3[51]: x[51] + u[51] - r[51] <= 1
 mccormick3[52]: x[52] + u[52] - r[52] <= 1
 mccormick3[53]: x[53] + u[53] - r[53] <= 1
 mccormick3[54]: x[54] + u[54] - r[54] <= 1
 mccormick3[55]: x[55] + u[55] - r[55] <= 1
 mccormick3[56]: x[56] + u[56] - r[56] <= 1
 mccormick3[57]: x[57] + u[57] - r[57] <= 1
 mccormick3[58]: x[58] + u[58] - r[58] <= 1
 mccormick3[59]: x[59] + u[59] - r[59] <= 1
 mccormick3[60]: x[60] + u[60] - r[60] <= 1
 mccormick3[61]: x[61] + u[61] - r[61] <= 1
 mccormick3[62]: x[62] + u[62] - r[62] <= 1
 mccormick3[63]: x[63] + u[63] - r[63] <= 1
 mccormick3[64]: x[64] + u[64] - r[64] <= 1
 mccormick3[65]: x[65] + u[65] - r[65] <= 1
 mccormick3[66]: x[66] + u[66] - r[66] <= 1
 mccormick3[67]: x[67] + u[67] - r[67] <= 1
 mccormick3[68]: x[68] + u[68] - r[68] <= 1
 mccormick3[69]: x[69] + u[69] - r[69] <= 1
 mccormick3[70]: x[70] + u[70] - r[70] <= 1
 mccormick3[71]: x[71] + u[71] - r[71] <= 1
 mccormick3[72]: x[72] + u[72] - r[72] <= 1
 mccormick3[73]: x[73] + u[73] - r[73] <= 1
 mccormick3[74]: x[74] + u[74] - r[74] <= 1
 mccormick3[75]: x[75] + u[75] - r[75] <= 1
 mccormick3[76]: x[76] + u[76] - r[76] <= 1
 mccormick3[77]: x[77] + u[77] - r[77] <= 1
 mccormick3[78]: x[78] + u[78] - r[78] <= 1
 mccormick3[79]: x[79] + u[79] - r[79] <= 1
 mccormick3[80]: x[80] + u[80] - r[80] <= 1
 mccormick3[81]: x[81] + u[81] - r[81] <= 1
 mccormick3[82]: x[82] + u[82] - r[82] <= 1
 mccormick3[83]: x[83] + u[83] - r[83] <= 1
 mccormick3[84]: x[84] + u[84] - r[84] <= 1
 mccormick3[85]: x[85] + u[85] - r[85] <= 1
 mccormick3[86]: x[86] + u[86] - r[86] <= 1
 mccormick3[87]: x[87] + u[87] - r[87] <= 1
 mccormick3[88]: x[88] + u[88] - r[88] <= 1
 mccormick3[89]: x[89] + u[89] - r[89] <= 1
 mccormick3[90]: x[90] + u[90] - r[90] <= 1
 mccormick3[91]: x[91] + u[91] - r[91] <= 1
 mccormick3[92]: x[92] + u[92] - r[92] <= 1
 mccormick3[93]: x[93] + u[93] - r[93] <= 1
 mccormick3[94]: x[94] + u[94] - r[94] <= 1
 mccormick3[95]: x[95] + u[95] - r[95] <= 1
 mccormick3[96]: x[96] + u[96] - r[96] <= 1
 mccormick3[97]: x[97] + u[97] - r[97] <= 1
 mccormick3[98]: x[98] + u[98] - r[98] <= 1
 mccormick3[99]: x[99] + u[99] - r[99] <= 1
 mccormick3[100]: x[100] + u[100] - r[100] <= 1
 mccormick3[101]: x[101] + u[101] - r[101] <= 1
 mccormick3[102]: x[102] + u[102] - r[102] <= 1
 mccormick3[103]: x[103] + u[103] - r[103] <= 1
 mccormick3[104]: x[104] + u[104] - r[104] <= 1
 mccormick3[105]: x[105] + u[105] - r[105] <= 1
 mccormick3[106]: x[106] + u[106] - r[106] <= 1
 mccormick3[107]: x[107] + u[107] - r[107] <= 1
 mccormick3[108]: x[108] + u[108] - r[108] <= 1
 mccormick3[109]: x[109] + u[109] - r[109] <= 1
 mccormick3[110]: x[110] + u[110] - r[110] <= 1
 mccormick3[111]: x[111] + u[111] - r[111] <= 1
 mccormick3[112]: x[112] + u[112] - r[112] <= 1
 mccormick3[113]: x[113] + u[113] - r[113] <= 1
 mccormick3[114]: x[114] + u[114] - r[114] <= 1
 mccormick3[115]: x[115] + u[115] - r[115] <= 1
 mccormick3[116]: x[116] + u[116] - r[116] <= 1
 mccormick3[117]: x[117] + u[117] - r[117] <= 1
 mccormick3[118]: x[118] + u[118] - r[118] <= 1
 mccormick3[119]: x[119] + u[119] - r[119] <= 1
 mccormick3[120]: x[120] + u[120] - r[120] <= 1
 mccormick3[121]: x[121] + u[121] - r[121] <= 1
 mccormick3[122]: x[122] + u[122] - r[122] <= 1
 mccormick3[123]: x[123] + u[123] - r[123] <= 1
 mccormick3[124]: x[124] + u[124] - r[124] <= 1
 mccormick3[125]: x[125] + u[125] - r[125] <= 1
 mccormick3[126]: x[126] + u[126] - r[126] <= 1
 mccormick3[127]: x[127] + u[127] - r[127] <= 1
 mccormick3[128]: x[128] + u[128] - r[128] <= 1
 mccormick3[129]: x[129] + u[129] - r[129] <= 1
Bounds
Binaries
 x[0] x[1] x[2] x[3] x[4] x[5] x[6] x[7] x[8] x[9] x[10] x[11] x[12] x[13]
 x[14] x[15] x[16] x[17] x[18] x[19] x[20] x[21] x[22] x[23] x[24] x[25]
 x[26] x[27] x[28] x[29] x[30] x[31] x[32] x[33] x[34] x[35] x[36] x[37]
 x[38] x[39] x[40] x[41] x[42] x[43] x[44] x[45] x[46] x[47] x[48] x[49]
 x[50] x[51] x[52] x[53] x[54] x[55] x[56] x[57] x[58] x[59] x[60] x[61]
 x[62] x[63] x[64] x[65] x[66] x[67] x[68] x[69] x[70] x[71] x[72] x[73]
 x[74] x[75] x[76] x[77] x[78] x[79] x[80] x[81] x[82] x[83] x[84] x[85]
 x[86] x[87] x[88] x[89] x[90] x[91] x[92] x[93] x[94] x[95] x[96] x[97]
 x[98] x[99] x[100] x[101] x[102] x[103] x[104] x[105] x[106] x[107] x[108]
 x[109] x[110] x[111] x[112] x[113] x[114] x[115] x[116] x[117] x[118]
 x[119] x[120] x[121] x[122] x[123] x[124] x[125] x[126] x[127] x[128]
 x[129] u[0] u[1] u[2] u[3] u[4] u[5] u[6] u[7] u[8] u[9] u[10] u[11] u[12]
 u[13] u[14] u[15] u[16] u[17] u[18] u[19] u[20] u[21] u[22] u[23] u[24]
 u[25] u[26] u[27] u[28] u[29] u[30] u[31] u[32] u[33] u[34] u[35] u[36]
 u[37] u[38] u[39] u[40] u[41] u[42] u[43] u[44] u[45] u[46] u[47] u[48]
 u[49] u[50] u[51] u[52] u[53] u[54] u[55] u[56] u[57] u[58] u[59] u[60]
 u[61] u[62] u[63] u[64] u[65] u[66] u[67] u[68] u[69] u[70] u[71] u[72]
 u[73] u[74] u[75] u[76] u[77] u[78] u[79] u[80] u[81] u[82] u[83] u[84]
 u[85] u[86] u[87] u[88] u[89] u[90] u[91] u[92] u[93] u[94] u[95] u[96]
 u[97] u[98] u[99] u[100] u[101] u[102] u[103] u[104] u[105] u[106] u[107]
 u[108] u[109] u[110] u[111] u[112] u[113] u[114] u[115] u[116] u[117]
 u[118] u[119] u[120] u[121] u[122] u[123] u[124] u[125] u[126] u[127]
 u[128] u[129] r[0] r[1] r[2] r[3] r[4] r[5] r[6] r[7] r[8] r[9] r[10]
 r[11] r[12] r[13] r[14] r[15] r[16] r[17] r[18] r[19] r[20] r[21] r[22]
 r[23] r[24] r[25] r[26] r[27] r[28] r[29] r[30] r[31] r[32] r[33] r[34]
 r[35] r[36] r[37] r[38] r[39] r[40] r[41] r[42] r[43] r[44] r[45] r[46]
 r[47] r[48] r[49] r[50] r[51] r[52] r[53] r[54] r[55] r[56] r[57] r[58]
 r[59] r[60] r[61] r[62] r[63] r[64] r[65] r[66] r[67] r[68] r[69] r[70]
 r[71] r[72] r[73] r[74] r[75] r[76] r[77] r[78] r[79] r[80] r[81] r[82]
 r[83] r[84] r[85] r[86] r[87] r[88] r[89] r[90] r[91] r[92] r[93] r[94]
 r[95] r[96] r[97] r[98] r[99] r[100] r[101] r[102] r[103] r[104] r[105]
 r[106] r[107] r[108] r[109] r[110] r[111] r[112] r[113] r[114] r[115]
 r[116] r[117] r[118] r[119] r[120] r[121] r[122] r[123] r[124] r[125]
 r[126] r[127] r[128] r[129]
End
