instances/knapsack/discrete_knapsack_uncertainty/knapsack_130_16.kp
14248
130
655

51 5.1 81
11 1.1 98
5 0.5 31
26 2.6 35
3 0.3 33
1 0.1 60
32 3.2 73
15 1.5 19
48 4.8 46
49 4.9 18
23 2.3 94
62 6.2 54
75 7.5 38
43 4.3 45
56 5.6 14
80 8.0 75
84 8.4 29
59 5.9 29
52 5.2 2
17 1.7 69
100 10.0 77
91 9.1 38
67 6.7 51
86 8.6 43
48 4.8 4
11 1.1 26
21 2.1 71
87 8.7 87
5 0.5 25
78 7.8 36
81 8.1 36
51 5.1 7
31 3.1 83
28 2.8 54
39 3.9 43
36 3.6 56
67 6.7 36
80 8.0 70
83 8.3 86
6 0.6 39
74 7.4 63
69 6.9 97
85 8.5 77
45 4.5 82
74 7.4 86
86 8.6 46
89 8.9 88
85 8.5 16
62 6.2 48
63 6.3 29
18 1.8 70
7 0.7 18
100 10.0 2
27 2.7 64
68 6.8 43
3 0.3 93
48 4.8 74
2 0.2 39
19 1.9 63
69 6.9 62
4 0.4 3
46 4.6 65
71 7.1 73
70 7.0 25
27 2.7 90
11 1.1 92
20 2.0 20
54 5.4 61
35 3.5 48
1 0.1 41
93 9.3 36
73 7.3 46
93 9.3 32
6 0.6 49
11 1.1 66
52 5.2 65
14 1.4 69
98 9.8 72
88 8.8 63
6 0.6 75
93 9.3 90
21 2.1 29
98 9.8 25
93 9.3 57
17 1.7 100
81 8.1 8
11 1.1 97
99 9.9 62
93 9.3 67
74 7.4 10
84 8.4 57
32 3.2 9
68 6.8 49
67 6.7 88
95 9.5 19
20 2.0 10
36 3.6 24
56 5.6 19
87 8.7 88
19 1.9 36
64 6.4 24
51 5.1 61
49 4.9 50
75 7.5 93
84 8.4 98
17 1.7 66
46 4.6 65
50 5.0 72
98 9.8 85
100 10.0 76
78 7.8 45
54 5.4 77
92 9.2 73
84 8.4 99
12 1.2 17
94 9.4 52
82 8.2 50
40 4.0 76
68 6.8 89
64 6.4 98
7 0.7 69
20 2.0 94
83 8.3 13
18 1.8 38
44 4.4 23
58 5.8 100
75 7.5 16
55 5.5 25
86 8.6 43
34 3.4 48

59786
707

[1.9044242890223977 3.425463204429596 3.9516653284991703 3.479411559478793 5.20951987057103 1.414130076416979 3.3908756901531754 3.269778824780087 4.957037275819961 0.9556995553133745 1.7540323493147976 2.862649155045029 1.6956829442454646 3.9905974672049482 4.579857363654097 3.501613474016053 2.0901745876217697 0.3840526876899136 3.8496328047450383 3.1079978421465166 4.975451741585233 0.4019511905036996 1.1675547297223463 4.441035643676678 4.958674428019151 0.9811543458079207 2.34679391967467 1.1894998004464439 5.080930251594941 1.3035741455310783 4.9622580498311315 0.4596068290561353 0.8418983186878155 2.1458728701858885 2.351223808656297 3.5098209820786015 0.5801871281087949 2.525542830447935 0.9120816657477028 3.5427144901638306 0.038014892850426966 3.4818290768730824 4.307991407859516 2.8321969632394546 5.269161634808355 1.4763649209022403 2.3469301379734855 4.34819089769501 1.417721506546697 2.7994454458512616 2.158742265479761 5.338042149639385 5.188665886968729 4.1127825979275165 2.4024874530619407 0.2509127944736428 2.705576957890639 0.8795187743102323 3.6170427563568883 3.3357438557702843 1.3705311248272256 4.232475839705806 5.3214443883376275 4.679471887453194 3.662318438828718 2.1442348719201627 2.518904809966087 3.1392456912199656 2.3181352808569353 3.663703494030991 4.306544719745606 4.364865550815974 3.968751907333769 0.990556627881167 3.945151684181307 2.8362325452873134 0.9720940447118712 4.903184109119208 3.2676057435559156 2.911364663238171 2.630578980678388 2.204338326126202 0.7482970575488799 0.4096041434477118 1.7459113481891717 0.8514082619429223 2.4678500236187983 4.462741341575426 2.7609242413166046 4.069838034354265 4.759420259464685 2.482756264415859 1.0494540707976523 2.1079467643555394 0.2009072922399374 2.526996509719373 1.0304664099110807 1.4704266708236515 4.474127618630829 0.15151391674355308 3.1705052712404456 3.3854204660226617 0.16587620853600674 3.0392808979258525 4.4881246214850306 2.447818337735345 4.874297722572178 2.5805685224286496 1.6029229291310638 5.394021466551937 0.4500104612301265 2.9565219809187027 3.683257195830921 1.709594562176161 0.8474555970729918 2.8910137126128035 0.9306947480552243 1.2244574843608298 0.040516554623331355 1.2713728823778445 0.1354621776108279 4.196814991356749 1.6107710580136942 5.1436196360432005 4.975790930726963 2.8407817516968463 1.1910562772092912 4.4560411612098205 2.5082082461431146 0.8249840666605347]

[4 4 14 99 88 82 5 64 49 74 32 79 68 96 49 33 57 100 61 38 81 92 96 23 1 92 2 48 70 51 14 28 80 69 16 45 68 41 24 79 71 86 70 66 95 59 54 18 87 72 3 52 93 64 69 100 45 75 52 38 29 39 92 95 44 80 65 67 76 34 58 62 82 11 60 49 79 11 13 55 90 74 59 50 30 70 84 72 30 83 61 53 29 92 88 29 73 45 28 16 81 88 50 88 69 82 27 79 87 1 71 39 5 49 73 83 63 85 21 53 92 1 36 43 49 67 88 84 95 35]
